 AMIN = 0.001000
 ENCUT = 400.000000
 KSPACING = 0.150000
 POTIM = 0.015000
 SIGMA = 0.080000
 EDIFF = 5.00e-07
 ALGO = VeryFast
 GGA = PE
 PREC = Accurate
 IBRION = -1
 ISMEAR = 0
 ISTART = 0
 ISYM = -1
 IWAVPR = 11
 KPAR = 1
 NELM = 200
 NELMDL = 10
 NSIM = 4
 NCORE = 32
 LCHARG = .FALSE.
 LWAVE = .FALSE.
 LREAL = Auto
